c 
p cnf 10 40
-7 -9 5 -4 -1 0
5 -10 -6 0
-8 -6 -10 2 0
8 -2 -5 7 0
-6 -7 1 -8 4 0
5 1 -4 9 3 0
-2 -5 3 0
-5 0
2 0
5 -3 8 0
-10 0
-9 0
-1 -9 0
-8 6 -2 0
-3 6 4 -2 0
9 -6 0
3 5 -10 0
1 0
-10 3 0
-3 0
3 -10 -6 -1 9 0
-5 8 0
4 9 -10 -6 -1 0
-5 8 -4 10 0
-6 -2 10 4 -5 0
1 9 -8 -4 0
-10 0
5 -2 -3 -8 -1 0
-4 -3 -9 0
1 -9 2 0
-7 6 4 1 0
6 4 10 0
3 8 1 0
-3 -1 9 -8 7 0
-3 -4 0
-7 9 -1 -6 2 0
-8 -6 -7 -9 0
8 6 0
7 3 6 5 0
6 5 0
